# Solution for model Problem 1B
# Objective value = 6.9405626957045839e+04
C0 0
C1 0
C2 0
C3 0
C4 0
C5 365
C6 0
C7 11
C8 0
C9 0
C10 112
C11 0
C12 0
C13 2
C14 0
C15 540
C16 0
C17 15
C18 0
C19 0
C20 173
C21 0
C22 5
C23 0
C24 0
C25 205
C26 0
C27 6
C28 0
C29 0
C30 282
C31 0
C32 8
C33 0
C34 0
C35 16
C36 0
C37 1
C38 0
C39 0
C40 85
C41 0
C42 1
C43 1
C44 0
C45 215
C46 0
C47 6
C48 0
C49 0
C50 106
C51 0
C52 3
C53 0
C54 0
C55 170
C56 0
C57 5
C58 0
C59 0
C60 0
C61 0
C62 0
C63 0
C64 0
C65 203
C66 0
C67 6
C68 0
C69 0
C70 0
C71 0
C72 0
C73 0
C74 0
C75 365
C76 0
C77 11
C78 0
C79 0
C80 0
C81 0
C82 0
C83 0
C84 0
C85 0
C86 0
C87 0
C88 0
C89 0
C90 392
C91 0
C92 0
C93 7
C94 0
C95 108
C96 0
C97 3
C98 0
C99 0
C100 175
C101 0
C102 5
C103 0
C104 0
C105 178
C106 0
C107 5
C108 0
C109 0
C110 0
C111 12
C112 0
C113 0
C114 0
C115 0
C116 6
C117 0
C118 0
C119 0
C120 144
C121 0
C122 4
C123 0
C124 0
C125 0
C126 2
C127 0
C128 0
C129 0
C130 112
C131 0
C132 0
C133 2
C134 0
C135 0
C136 0
C137 0
C138 0
C139 0
C140 112
C141 11
C142 0
C143 2
C144 0
C145 0
C146 0
C147 0
C148 0
C149 0
C150 112
C151 0
C152 0
C153 2
C154 0
C155 0
C156 0
C157 0
C158 0
C159 0
C160 0
C161 0
C162 0
C163 0
C164 0
C165 112
C166 0
C167 0
C168 2
C169 0
C170 0
C171 0
C172 0
C173 0
C174 0
C175 0
C176 0
C177 0
C178 0
C179 0
C180 0
C181 0
C182 0
C183 0
C184 0
C185 0
C186 0
C187 0
C188 0
C189 0
C190 36
C191 0
C192 1
C193 0
C194 0
C195 0
C196 0
C197 0
C198 0
C199 0
C200 0
C201 0
C202 0
C203 0
C204 0
C205 0
C206 0
C207 0
C208 0
C209 0
C210 0
C211 0
C212 0
C213 0
C214 0
C215 56
C216 0
C217 0
C218 1
C219 0
C220 0
C221 0
C222 0
C223 0
C224 0
C225 540
C226 0
C227 15
C228 0
C229 0
C230 392
C231 0
C232 0
C233 7
C234 0
C235 112
C236 0
C237 0
C238 2
C239 0
C240 0
C241 0
C242 0
C243 0
C244 0
C245 180
C246 0
C247 5
C248 0
C249 0
C250 224
C251 0
C252 0
C253 4
C254 0
C255 288
C256 0
C257 8
C258 0
C259 0
C260 0
C261 0
C262 0
C263 0
C264 0
C265 112
C266 0
C267 0
C268 2
C269 0
C270 236
C271 0
C272 5
C273 1
C274 0
C275 144
C276 0
C277 4
C278 0
C279 0
C280 252
C281 0
C282 7
C283 0
C284 0
C285 0
C286 0
C287 0
C288 0
C289 0
C290 393
C291 0
C292 11
C293 0
C294 0
C295 0
C296 0
C297 0
C298 0
C299 0
C300 173
C301 0
C302 5
C303 0
C304 0
C305 108
C306 0
C307 3
C308 0
C309 0
C310 0
C311 0
C312 0
C313 0
C314 0
C315 180
C316 0
C317 5
C318 0
C319 0
C320 0
C321 0
C322 0
C323 0
C324 0
C325 56
C326 1
C327 0
C328 1
C329 0
C330 108
C331 0
C332 3
C333 0
C334 0
C335 0
C336 0
C337 0
C338 0
C339 0
C340 0
C341 0
C342 0
C343 0
C344 0
C345 72
C346 0
C347 2
C348 0
C349 0
C350 36
C351 0
C352 1
C353 0
C354 0
C355 36
C356 4
C357 1
C358 0
C359 0
C360 0
C361 0
C362 0
C363 0
C364 0
C365 56
C366 2
C367 0
C368 1
C369 0
C370 0
C371 0
C372 0
C373 0
C374 0
C375 205
C376 0
C377 6
C378 0
C379 0
C380 175
C381 0
C382 5
C383 0
C384 0
C385 0
C386 0
C387 0
C388 0
C389 0
C390 224
C391 0
C392 0
C393 4
C394 0
C395 56
C396 3
C397 0
C398 1
C399 0
C400 0
C401 0
C402 0
C403 0
C404 0
C405 92
C406 0
C407 1
C408 1
C409 0
C410 0
C411 7
C412 0
C413 0
C414 0
C415 0
C416 1
C417 0
C418 0
C419 0
C420 72
C421 0
C422 2
C423 0
C424 0
C425 0
C426 0
C427 0
C428 0
C429 0
C430 72
C431 0
C432 2
C433 0
C434 0
C435 0
C436 0
C437 0
C438 0
C439 0
C440 72
C441 0
C442 2
C443 0
C444 0
C445 0
C446 0
C447 0
C448 0
C449 0
C450 282
C451 0
C452 8
C453 0
C454 0
C455 178
C456 0
C457 5
C458 0
C459 0
C460 0
C461 0
C462 0
C463 0
C464 0
C465 288
C466 0
C467 8
C468 0
C469 0
C470 108
C471 0
C472 3
C473 0
C474 0
C475 92
C476 0
C477 1
C478 1
C479 0
C480 0
C481 0
C482 0
C483 0
C484 0
C485 0
C486 0
C487 0
C488 0
C489 0
C490 0
C491 0
C492 0
C493 0
C494 0
C495 108
C496 0
C497 3
C498 0
C499 0
C500 56
C501 0
C502 0
C503 1
C504 0
C505 72
C506 6
C507 2
C508 0
C509 0
C510 0
C511 0
C512 0
C513 0
C514 0
C515 107
C516 0
C517 3
C518 0
C519 0
C520 0
C521 0
C522 0
C523 0
C524 0
C525 16
C526 0
C527 1
C528 0
C529 0
C530 0
C531 12
C532 0
C533 0
C534 0
C535 0
C536 0
C537 0
C538 0
C539 0
C540 0
C541 0
C542 0
C543 0
C544 0
C545 0
C546 0
C547 0
C548 0
C549 0
C550 0
C551 7
C552 0
C553 0
C554 0
C555 0
C556 0
C557 0
C558 0
C559 0
C560 0
C561 0
C562 0
C563 0
C564 0
C565 0
C566 0
C567 0
C568 0
C569 0
C570 0
C571 1
C572 0
C573 0
C574 0
C575 0
C576 0
C577 0
C578 0
C579 0
C580 0
C581 0
C582 0
C583 0
C584 0
C585 0
C586 0
C587 0
C588 0
C589 0
C590 0
C591 0
C592 0
C593 0
C594 0
C595 0
C596 0
C597 0
C598 0
C599 0
C600 85
C601 0
C602 1
C603 1
C604 0
C605 0
C606 4
C607 0
C608 0
C609 0
C610 36
C611 0
C612 1
C613 0
C614 0
C615 112
C616 0
C617 0
C618 2
C619 0
C620 0
C621 0
C622 0
C623 0
C624 0
C625 0
C626 3
C627 0
C628 0
C629 0
C630 0
C631 0
C632 0
C633 0
C634 0
C635 0
C636 0
C637 0
C638 0
C639 0
C640 0
C641 0
C642 0
C643 0
C644 0
C645 0
C646 0
C647 0
C648 0
C649 0
C650 0
C651 0
C652 0
C653 0
C654 0
C655 0
C656 0
C657 0
C658 0
C659 0
C660 0
C661 0
C662 0
C663 0
C664 0
C665 0
C666 0
C667 0
C668 0
C669 0
C670 0
C671 0
C672 0
C673 0
C674 0
C675 215
C676 0
C677 6
C678 0
C679 0
C680 144
C681 0
C682 4
C683 0
C684 0
C685 0
C686 0
C687 0
C688 0
C689 0
C690 236
C691 0
C692 5
C693 1
C694 0
C695 72
C696 0
C697 2
C698 0
C699 0
C700 72
C701 0
C702 2
C703 0
C704 0
C705 108
C706 0
C707 3
C708 0
C709 0
C710 0
C711 1
C712 0
C713 0
C714 0
C715 0
C716 0
C717 0
C718 0
C719 0
C720 0
C721 0
C722 0
C723 0
C724 0
C725 36
C726 0
C727 1
C728 0
C729 0
C730 72
C731 0
C732 2
C733 0
C734 0
C735 0
C736 0
C737 0
C738 0
C739 0
C740 72
C741 0
C742 2
C743 0
C744 0
C745 0
C746 0
C747 0
C748 0
C749 0
C750 106
C751 0
C752 3
C753 0
C754 0
C755 0
C756 2
C757 0
C758 0
C759 0
C760 0
C761 0
C762 0
C763 0
C764 0
C765 144
C766 0
C767 4
C768 0
C769 0
C770 36
C771 0
C772 1
C773 0
C774 0
C775 0
C776 0
C777 0
C778 0
C779 0
C780 56
C781 0
C782 0
C783 1
C784 0
C785 0
C786 0
C787 0
C788 0
C789 0
C790 0
C791 0
C792 0
C793 0
C794 0
C795 36
C796 0
C797 1
C798 0
C799 0
C800 0
C801 0
C802 0
C803 0
C804 0
C805 36
C806 0
C807 1
C808 0
C809 0
C810 0
C811 0
C812 0
C813 0
C814 0
C815 36
C816 0
C817 1
C818 0
C819 0
C820 0
C821 0
C822 0
C823 0
C824 0
C825 170
C826 0
C827 5
C828 0
C829 0
C830 112
C831 0
C832 0
C833 2
C834 0
C835 0
C836 0
C837 0
C838 0
C839 0
C840 252
C841 0
C842 7
C843 0
C844 0
C845 36
C846 4
C847 1
C848 0
C849 0
C850 72
C851 0
C852 2
C853 0
C854 0
C855 72
C856 6
C857 2
C858 0
C859 0
C860 0
C861 0
C862 0
C863 0
C864 0
C865 0
C866 0
C867 0
C868 0
C869 0
C870 72
C871 0
C872 2
C873 0
C874 0
C875 36
C876 0
C877 1
C878 0
C879 0
C880 0
C881 0
C882 0
C883 0
C884 0
C885 0
C886 0
C887 0
C888 0
C889 0
C890 72
C891 0
C892 2
C893 0
C894 0
C895 0
C896 0
C897 0
C898 0
C899 0
C900 0
C901 0
C902 0
C903 0
C904 0
C905 0
C906 0
C907 0
C908 0
C909 0
C910 0
C911 0
C912 0
C913 0
C914 0
C915 0
C916 0
C917 0
C918 0
C919 0
C920 0
C921 0
C922 0
C923 0
C924 0
C925 0
C926 0
C927 0
C928 0
C929 0
C930 0
C931 0
C932 0
C933 0
C934 0
C935 0
C936 0
C937 0
C938 0
C939 0
C940 0
C941 0
C942 0
C943 0
C944 0
C945 0
C946 0
C947 0
C948 0
C949 0
C950 0
C951 0
C952 0
C953 0
C954 0
C955 0
C956 0
C957 0
C958 0
C959 0
C960 0
C961 0
C962 0
C963 0
C964 0
C965 0
C966 0
C967 0
C968 0
C969 0
C970 0
C971 0
C972 0
C973 0
C974 0
C975 203
C976 0
C977 6
C978 0
C979 0
C980 112
C981 13
C982 0
C983 2
C984 0
C985 56
C986 0
C987 0
C988 1
C989 0
C990 393
C991 0
C992 11
C993 0
C994 0
C995 56
C996 0
C997 0
C998 1
C999 0
C1000 72
C1001 0
C1002 2
C1003 0
C1004 0
C1005 107
C1006 0
C1007 3
C1008 0
C1009 0
C1010 0
C1011 0
C1012 0
C1013 0
C1014 0
C1015 0
C1016 0
C1017 0
C1018 0
C1019 0
C1020 72
C1021 0
C1022 2
C1023 0
C1024 0
C1025 36
C1026 0
C1027 1
C1028 0
C1029 0
C1030 72
C1031 0
C1032 2
C1033 0
C1034 0
C1035 0
C1036 0
C1037 0
C1038 0
C1039 0
C1040 0
C1041 0
C1042 0
C1043 0
C1044 0
C1045 0
C1046 0
C1047 0
C1048 0
C1049 0
C1050 0
C1051 0
C1052 0
C1053 0
C1054 0
C1055 0
C1056 0
C1057 0
C1058 0
C1059 0
C1060 0
C1061 0
C1062 0
C1063 0
C1064 0
C1065 0
C1066 0
C1067 0
C1068 0
C1069 0
C1070 0
C1071 0
C1072 0
C1073 0
C1074 0
C1075 0
C1076 0
C1077 0
C1078 0
C1079 0
C1080 0
C1081 0
C1082 0
C1083 0
C1084 0
C1085 0
C1086 0
C1087 0
C1088 0
C1089 0
C1090 0
C1091 0
C1092 0
C1093 0
C1094 0
C1095 0
C1096 0
C1097 0
C1098 0
C1099 0
C1100 0
C1101 0
C1102 0
C1103 0
C1104 0
C1105 0
C1106 0
C1107 0
C1108 0
C1109 0
C1110 0
C1111 0
C1112 0
C1113 0
C1114 0
C1115 0
C1116 0
C1117 0
C1118 0
C1119 0
C1120 0
C1121 0
C1122 0
C1123 0
C1124 0
C1125 4
C1126 1
C1127 0
